
===== New CPLEX run =====
Instance: /home/yorig/tuner/mpils-tests/instances/miplib/medium-1/neos-1456979.mps
Config: /scratch/yorig/mpils-results-grid-seconds-10-no-mip-start/medium-1/2proc/seed-5/8_neos-1456979_seed-5_20260503_052435/expansion/config_param_CPXPARAM_MIP_Strategy_HeuristicFreq_-1_iter_3.prm
========================

Selected objective sense:  MINIMIZE
Selected objective  name:  R6771
Selected RHS        name:  B
Selected bound      name:  BOUND
Version identifier: 22.1.2.0 | 2024-11-26 | 0edbb82fd
CPXPARAM_Threads                                 8
CPXPARAM_Parallel                                1
CPXPARAM_MIP_Cuts_Cliques                        1
CPXPARAM_MIP_Strategy_NodeSelect                 3
CPXPARAM_MIP_Cuts_FlowCovers                     2
CPXPARAM_MIP_Cuts_Implied                        -1
CPXPARAM_MIP_Cuts_GUBCovers                      2
CPXPARAM_MIP_Limits_GomoryCand                   800
CPXPARAM_MIP_Cuts_Gomory                         1
CPXPARAM_MIP_Cuts_PathCut                        -1
CPXPARAM_MIP_Cuts_MIRCut                         2
CPXPARAM_MIP_Cuts_Disjunctive                    -1
CPXPARAM_Emphasis_MIP                            5
CPXPARAM_MIP_Strategy_HeuristicFreq              -1
CPXPARAM_TimeLimit                               10
CPXPARAM_MIP_Limits_ProbeTime                    60
Tried aggregator 1 time.
MIP Presolve eliminated 175 rows and 10 columns.
MIP Presolve modified 4950 coefficients.
Reduced MIP has 6595 rows, 4595 columns, and 35740 nonzeros.
Reduced MIP has 4245 binaries, 175 generals, 0 SOSs, and 0 indicators.
Presolve time = 0.01 sec. (15.92 ticks)
Probing time = 0.03 sec. (33.51 ticks)
Tried aggregator 1 time.
Detecting symmetries...
MIP Presolve modified 90 coefficients.
Reduced MIP has 6595 rows, 4595 columns, and 35740 nonzeros.
Reduced MIP has 4245 binaries, 175 generals, 0 SOSs, and 0 indicators.
Presolve time = 0.02 sec. (27.11 ticks)
Probing time = 0.05 sec. (33.23 ticks)
Clique table members: 20433.
MIP emphasis: heuristic.
MIP search method: dynamic search.
Parallel mode: deterministic, using up to 8 threads.
Root relaxation solution time = 0.03 sec. (38.64 ticks)

        Nodes                                         Cuts/
   Node  Left     Objective  IInf  Best Integer    Best Bound    ItCnt     Gap

      0     0      154.0000   120                    154.0000      736         
      0     0      154.0000   129                    Cuts: 77      897         
      0     0      154.0000   125                    Cuts: 65     1080         
      0     0      154.0000   126                   Cuts: 261     1330         
      0     2      154.0000    84                    154.0000     1330         
Elapsed time = 0.52 sec. (641.79 ticks, tree = 0.02 MB, solutions = 0)
     71    61      166.2788    90                    157.0000     9213         
    223   167      169.6712   121                    157.0000    17596         
*   379   293      integral     0      220.0000      157.0000    24179   28.64%
*   407   303      integral     0      201.0000      157.0000    25155   21.89%
    448   337      177.6551    98      201.0000      157.0000    26916   21.89%
    705   481        cutoff            201.0000      157.0000    34796   21.89%
    974   602      199.0000    13      201.0000      157.0000    40434   21.89%
*  1036   691      integral     0      193.0000      157.0000    44099   18.65%
*  1169   727      integral     0      189.0000      157.0000    46248   16.93%
   1262   576      171.2500   128      189.0000      157.0000    52871   16.93%
   1448   732      167.1765   125      189.0000      157.0000    62297   16.93%
   1702   901      179.2069   131      189.0000      157.0000    70409   16.93%
   2016  1091      174.0000   129      189.0000      157.0000    78120   16.93%
   3183  2080      186.8077    95      189.0000      157.0000   119734   16.93%
Elapsed time = 5.09 sec. (3752.75 ticks, tree = 77.81 MB, solutions = 4)

Performing restart 1

Repeating presolve.
Tried aggregator 1 time.
MIP Presolve eliminated 31 rows and 25 columns.
MIP Presolve modified 4703 coefficients.
Reduced MIP has 6564 rows, 4570 columns, and 34133 nonzeros.
Reduced MIP has 4220 binaries, 175 generals, 0 SOSs, and 0 indicators.
Presolve time = 0.02 sec. (33.90 ticks)
Tried aggregator 1 time.
Reduced MIP has 6564 rows, 4570 columns, and 34133 nonzeros.
Reduced MIP has 4220 binaries, 175 generals, 0 SOSs, and 0 indicators.
Presolve time = 0.02 sec. (25.00 ticks)
Represolve time = 0.19 sec. (106.61 ticks)
   3415     0      154.8333   187      189.0000      Cuts: 55   133780   16.93%
   3415     0      156.0175   197      189.0000     Cuts: 204   133925   16.93%
   3415     0      156.5000   126      189.0000     Cuts: 107   134048   16.93%
   3415     0      157.6667   177      189.0000      Cuts: 45   134168   16.58%
   3415     0      158.1494   176      189.0000      Cuts: 60   134324   16.32%
   3415     0      158.7500   198      189.0000      Cuts: 71   134449   16.01%
   3415     0      159.9360   220      189.0000      Cuts: 65   134537   15.38%
   3415     0      160.2955   248      189.0000      Cuts: 66   134640   15.19%
   3415     0      161.2500   179      189.0000     Cuts: 102   134738   14.68%
   3415     0      161.5000   229      189.0000      Cuts: 51   134824   14.55%
   3415     0      162.0000   203      189.0000      Cuts: 60   134924   14.29%
   3415     0      162.4314   239      189.0000      Cuts: 32   135036   14.06%
   3415     0      163.2500   181      189.0000      Cuts: 98   135150   13.62%
   3415     0      163.5000   137      189.0000      Cuts: 37   135193   13.49%
   3415     0      163.7500   155      189.0000      Cuts: 19   135226   13.36%
   3415     0      165.0000   191      189.0000      Cuts: 42   135268   12.70%
   3415     0      165.0000   144      189.0000      Cuts: 46   135517   12.70%
   3415     0      165.0000   131      189.0000     Cuts: 118   135617   12.70%
   3415     0      165.0307   228      189.0000  ZeroHalf: 14   135899   12.68%
   3415     0      165.0625   198      189.0000     Cuts: 154   135984   12.67%
   3415     0      165.1250   191      189.0000      Cuts: 51   136061   12.63%
   3415     0      165.2232   244      189.0000      Cuts: 79   136139   12.58%
   3415     0      165.5000   240      189.0000      Cuts: 70   136242   12.43%
   3415     0      165.9286   249      189.0000      Cuts: 60   136408   12.21%
   3415     0      167.0117   257      189.0000      Cuts: 56   136593   11.63%
   3415     0      167.1449   259      189.0000      Cuts: 42   136667   11.56%
   3415     0      167.5143   236      189.0000      Cuts: 31   136751   11.37%
   3415     0      167.8000   230      189.0000      Cuts: 40   136812   11.22%
   3415     0      167.8710   277      189.0000      Cuts: 31   136971   11.18%
   3415     0      167.8804   279      189.0000      Cuts: 43   137049   11.17%
   3415     0      167.9880   291      189.0000      Cuts: 16   137099   11.12%
   3415     0      168.2128   247      189.0000     Cuts: 157   137221   11.00%
   3415     0      168.2128   242      189.0000      Cuts: 76   137288   11.00%
   3415     0      168.2128   236      189.0000      Cuts: 13   137302   11.00%

GUB cover cuts applied:  0
Clique cuts applied:  1
Cover cuts applied:  2
Flow cuts applied:  5
Mixed integer rounding cuts applied:  178
Zero-half cuts applied:  126
Gomory fractional cuts applied:  7

Root node processing (before b&c):
  Real time             =    0.40 sec. (639.49 ticks)
Parallel b&c, 8 threads:
  Real time             =    9.61 sec. (10377.77 ticks)
  Sync time (average)   =    1.93 sec.
  Wait time (average)   =    0.00 sec.
                          ------------
Total (root+branch&cut) =   10.00 sec. (11017.25 ticks)
Gap: 11%
Upper bound: 189
Lower bound: 168.213
End of CPLEX run. Time: 10.0096 seconds
